(set-logic QF_S)
(declare-const x String)
(declare-const y String)
(declare-const m String)
(declare-const n String)
(assert (str.in.re x (re.union (re.* (str.to.re "b")) (str.to.re "' '"))))
(assert (str.in.re x (re.union (re.union (re.+ (str.to.re "c")) (re.* (str.to.re ""))) (str.to.re "'\x0b'"))))
(assert (= 3 (str.to.int x)))
(check-sat)
